RT is False
Default write of storage_offers_DA.csv just to have a file (but constraint should be inactive)
Reading model...
...model read.
creating competitive generators file...
...competitive generators recorded.
Loading data...
.. day-ahead data with real-time VRE data read.
Compiling instance...
...instance created.
Creating Offer Mitigation (model will solve as dispatch if TRUE)...
Solving...

Welcome to IBM(R) ILOG(R) CPLEX(R) Interactive Optimizer 12.9.0.0
  with Simplex, Mixed Integer & Barrier Optimizers
5725-A06 5725-A29 5724-Y48 5724-Y49 5724-Y54 5724-Y55 5655-Y21
Copyright IBM Corp. 1988, 2019.  All Rights Reserved.

Type 'help' for a list of available commands.
Type 'help' followed by a command name for more
information on commands.

CPLEX> Logfile 'cplex.log' closed.
Logfile 'C:\Users\llavin\Desktop\test919\logs\tmp7ri9b85u.cplex.log' open.
CPLEX> New value for parallel optimization mode: -1
CPLEX> New value for mixed integer optimality gap tolerance: 0.01
CPLEX> New value for integrality tolerance: 1e-09
CPLEX> New value for feasibility tolerance: 0.01
CPLEX> New value for deterministic time limit in ticks: 75000
CPLEX> Problem 'C:\Users\llavin\Desktop\test919\logs\tmp69kcm5qc.pyomo.lp' read.
Read time = 0.05 sec. (3.04 ticks)
CPLEX> Problem name         : C:\Users\llavin\Desktop\test919\logs\tmp69kcm5qc.pyomo.lp
Objective sense      : Minimize
Variables            :   26081  [Nneg: 1,  Box: 21616,  Free: 4464]
Objective nonzeros   :    2496
Linear constraints   :   27515  [Less: 14006,  Greater: 4416,  Equal: 9093]
  Nonzeros           :   89219
  RHS nonzeros       :   12271

Variables            : Min LB: -5000.000        Max UB: 1000000.       
Objective nonzeros   : Min   : 15.73158         Max   : 124.0997       
Linear constraints   :
  Nonzeros           : Min   : 0.8500000        Max   : 3000.000       
  RHS nonzeros       : Min   : 0.01666667       Max   : 5000.000       
CPLEX> CPXPARAM_Parallel                                -1
CPXPARAM_Simplex_Tolerances_Feasibility          0.01
CPXPARAM_DetTimeLimit                            75000
CPXPARAM_MIP_Tolerances_MIPGap                   0.01
CPXPARAM_MIP_Tolerances_Integrality              1.0000000000000001e-09
Parallel mode: opportunistic, using up to 32 threads for concurrent optimization.
Tried aggregator 1 time.
LP Presolve eliminated 21377 rows and 15484 columns.
Aggregator did 743 substitutions.
Reduced LP has 5395 rows, 9854 columns, and 31796 nonzeros.
Presolve time = 0.06 sec. (30.20 ticks)
Symmetry aggregator did 5565 additional substitutions.

Iteration log . . .
Iteration:     1   Dual objective     =             0.000000
Perturbation started.
Iteration:   101   Dual objective     =             0.000000
Iteration:   320   Dual objective     =             1.250628
Iteration:   599   Dual objective     =             1.903738
Iteration:   859   Dual objective     =             2.051035
Iteration:  1058   Dual objective     =             2.161640
Iteration:  1337   Dual objective     =             2.211568
Iteration:  1580   Dual objective     =             2.241752
Iteration:  1801   Dual objective     =             2.261597
Iteration:  2019   Dual objective     =             2.284262
Iteration:  2219   Dual objective     =             2.296687
Iteration:  2446   Dual objective     =          3763.740880
Iteration:  2711   Dual objective     =         16744.060178
Removing perturbation.
Using devex.

Primal simplex solved model.


Primal simplex - Optimal:  Objective =  1.7647294373e+04
Solution time =    0.16 sec.  Iterations = 1488 (1079)
Deterministic time = 76.50 ticks  (490.39 ticks/sec)

CPLEX> Solution written to file 'C:\Users\llavin\Desktop\test919\logs\tmptir16167.cplex.sol'.
CPLEX> Exporting results... 
...storage offer mitigation file created
Converting model to MPEC...
...converted
NOTE: initial MIP solve with only storage competitive to get feasible solution
Solving...

Welcome to IBM(R) ILOG(R) CPLEX(R) Interactive Optimizer 12.9.0.0
  with Simplex, Mixed Integer & Barrier Optimizers
5725-A06 5725-A29 5724-Y48 5724-Y49 5724-Y54 5724-Y55 5655-Y21
Copyright IBM Corp. 1988, 2019.  All Rights Reserved.

Type 'help' for a list of available commands.
Type 'help' followed by a command name for more
information on commands.

CPLEX> Logfile 'cplex.log' closed.
Logfile 'C:\Users\llavin\Desktop\test919\logs\tmpe4lq624_.cplex.log' open.
CPLEX> New value for parallel optimization mode: -1
CPLEX> New value for mixed integer optimality gap tolerance: 0.01
CPLEX> New value for integrality tolerance: 1e-09
CPLEX> New value for feasibility tolerance: 0.01
CPLEX> New value for deterministic time limit in ticks: 75000
CPLEX> Problem 'C:\Users\llavin\Desktop\test919\logs\tmplriw0nd4.pyomo.lp' read.
Read time = 0.23 sec. (14.78 ticks)
CPLEX> Problem name         : C:\Users\llavin\Desktop\test919\logs\tmplriw0nd4.pyomo.lp
Objective sense      : Maximize
Variables            :   53805  [Nneg: 1,  Box: 22000,  Free: 4464,
                                 Binary: 27340]
Objective nonzeros   :    9029
Linear constraints   :  123205  [Less: 41346,  Greater: 59096,  Equal: 22763]
  Nonzeros           :  291753
  RHS nonzeros       :   67491

Variables            : Min LB: -5000.000        Max UB: 1000000.       
Objective nonzeros   : Min   : 0.01666667       Max   : 2500.000       
Linear constraints   :
  Nonzeros           : Min   : 0.01666667       Max   : 1000000.       
  RHS nonzeros       : Min   : 0.01666667       Max   : 1000000.       
CPLEX> CPXPARAM_Parallel                                -1
CPXPARAM_Simplex_Tolerances_Feasibility          0.01
CPXPARAM_DetTimeLimit                            75000
CPXPARAM_MIP_Tolerances_MIPGap                   0.01
CPXPARAM_MIP_Tolerances_Integrality              1.0000000000000001e-09
Tried aggregator 3 times.
MIP Presolve eliminated 88603 rows and 18929 columns.
MIP Presolve added 3380 rows and 0 columns.
MIP Presolve modified 24842 coefficients.
Aggregator did 13004 substitutions.
Reduced MIP has 24978 rows, 21318 columns, and 71236 nonzeros.
Reduced MIP has 8435 binaries, 0 generals, 0 SOSs, and 0 indicators.
Presolve time = 0.30 sec. (173.79 ticks)
Probing fixed 415 vars, tightened 2896 bounds.
Probing time = 1.23 sec. (910.23 ticks)
Tried aggregator 2 times.
MIP Presolve eliminated 935 rows and 833 columns.
MIP Presolve modified 2213 coefficients.
Aggregator did 42 substitutions.
Reduced MIP has 24001 rows, 20443 columns, and 68402 nonzeros.
Reduced MIP has 8019 binaries, 0 generals, 0 SOSs, and 0 indicators.
Presolve time = 0.09 sec. (68.96 ticks)
Probing time = 0.05 sec. (15.45 ticks)
Clique table members: 6407.
MIP emphasis: balance optimality and feasibility.
MIP search method: dynamic search.
Parallel mode: opportunistic, using up to 32 threads.
Root relaxation solution time = 0.42 sec. (497.40 ticks)

        Nodes                                         Cuts/
   Node  Left     Objective  IInf  Best Integer    Best Bound    ItCnt     Gap

      0     0      544.9006   669                    544.9006     6210         
*     0+    0                            0.0000      544.9006              --- 
*     0+    0                          544.9006      544.9006             0.00%
      0     0        cutoff            544.9006      544.9006     6243    0.00%
Elapsed time = 3.70 sec. (2781.89 ticks, tree = 0.01 MB, solutions = 2)

Root node processing (before b&c):
  Real time             =    3.72 sec. (2784.08 ticks)
Parallel b&c, 32 threads:
  Real time             =    0.00 sec. (0.00 ticks)
  Sync time (average)   =    0.00 sec.
  Wait time (average)   =    0.00 sec.
                          ------------
Total (root+branch&cut) =    3.72 sec. (2784.08 ticks)

Solution pool: 2 solutions saved.

MIP - Integer optimal solution:  Objective =  5.4490062857e+02
Solution time =    3.75 sec.  Iterations = 6243  Nodes = 0
Deterministic time = 2784.23 ticks  (742.46 ticks/sec)

CPLEX> Incumbent solution written to file 'C:\Users\llavin\Desktop\test919\logs\tmpmwb6iyrt.cplex.sol'.
CPLEX> NOTE: no warmstart specified for MIP iteration, default behavior is true
NOTE: resolving with all competitive generators using storage-only solution to warmstart
Solving...

Welcome to IBM(R) ILOG(R) CPLEX(R) Interactive Optimizer 12.9.0.0
  with Simplex, Mixed Integer & Barrier Optimizers
5725-A06 5725-A29 5724-Y48 5724-Y49 5724-Y54 5724-Y55 5655-Y21
Copyright IBM Corp. 1988, 2019.  All Rights Reserved.

Type 'help' for a list of available commands.
Type 'help' followed by a command name for more
information on commands.

CPLEX> Logfile 'cplex.log' closed.
Logfile 'C:\Users\llavin\Desktop\test919\logs\tmp7plvkil1.cplex.log' open.
CPLEX> New value for parallel optimization mode: -1
CPLEX> New value for mixed integer optimality gap tolerance: 0.01
CPLEX> New value for integrality tolerance: 1e-09
CPLEX> New value for feasibility tolerance: 0.01
CPLEX> New value for deterministic time limit in ticks: 75000
CPLEX> Problem 'C:\Users\llavin\Desktop\test919\logs\tmp9jf6um8i.pyomo.lp' read.
Read time = 0.23 sec. (14.81 ticks)
CPLEX> MIP start file 'C:\Users\llavin\Desktop\test919\logs\tmpnntbyfmp.cplex.mst' read.
CPLEX> Problem name         : C:\Users\llavin\Desktop\test919\logs\tmp9jf6um8i.pyomo.lp
Objective sense      : Maximize
Variables            :   54525  [Nneg: 1,  Box: 22720,  Free: 4464,
                                 Binary: 27340]
Objective nonzeros   :    9725
Linear constraints   :  123205  [Less: 41346,  Greater: 59096,  Equal: 22763]
  Nonzeros           :  291753
  RHS nonzeros       :   67491

Variables            : Min LB: -5000.000        Max UB: 1000000.       
Objective nonzeros   : Min   : 0.01666667       Max   : 2500.000       
Linear constraints   :
  Nonzeros           : Min   : 0.01666667       Max   : 1000000.       
  RHS nonzeros       : Min   : 0.01666667       Max   : 1000000.       
CPLEX> CPXPARAM_Parallel                                -1
CPXPARAM_Simplex_Tolerances_Feasibility          0.01
CPXPARAM_DetTimeLimit                            75000
CPXPARAM_MIP_Tolerances_MIPGap                   0.01
CPXPARAM_MIP_Tolerances_Integrality              1.0000000000000001e-09
Warning:  No solution found from 1 MIP starts.
Retaining values of one MIP start for possible repair.
Tried aggregator 3 times.
MIP Presolve eliminated 88603 rows and 19649 columns.
MIP Presolve added 3380 rows and 0 columns.
MIP Presolve modified 24842 coefficients.
Aggregator did 13004 substitutions.
Reduced MIP has 24978 rows, 21318 columns, and 71236 nonzeros.
Reduced MIP has 8435 binaries, 0 generals, 0 SOSs, and 0 indicators.
Presolve time = 0.30 sec. (174.14 ticks)
Probing fixed 415 vars, tightened 2896 bounds.
Probing time = 1.25 sec. (910.23 ticks)
Tried aggregator 2 times.
MIP Presolve eliminated 935 rows and 833 columns.
MIP Presolve modified 2213 coefficients.
Aggregator did 42 substitutions.
Reduced MIP has 24001 rows, 20443 columns, and 68402 nonzeros.
Reduced MIP has 8019 binaries, 0 generals, 0 SOSs, and 0 indicators.
Presolve time = 0.11 sec. (68.96 ticks)
Probing time = 0.05 sec. (15.45 ticks)
Clique table members: 6407.
MIP emphasis: balance optimality and feasibility.
MIP search method: dynamic search.
Parallel mode: opportunistic, using up to 32 threads.
Root relaxation solution time = 0.33 sec. (253.08 ticks)

        Nodes                                         Cuts/
   Node  Left     Objective  IInf  Best Integer    Best Bound    ItCnt     Gap

      0     0    84355.7232  1741                  84355.7232     6339         
      0     0    81442.5761   572                   Cuts: 652     6666         
      0     0    81181.8163   524                   Cuts: 186     6778         
      0     0    80739.0823   464                    Cuts: 98     6846         
      0     0    80739.0823   427                    Cuts: 67     6889         
      0     0    80739.0823   407                    Cuts: 40     6914         
      0     0    80739.0823   401                    Cuts: 21     6931         
      0     0    80739.0823   392                    Cuts: 32     6941         
      0     0    79768.8655   391                    Cuts: 23     6984         
      0     0    79768.1100   386                    Cuts: 57     7001         
      0     0    79768.1100   394                    Cuts: 31     7010         
Repair heuristic found nothing.
      0     2    79768.1100   394                    Cuts: 75     7010         
Elapsed time = 11.94 sec. (6586.40 ticks, tree = 0.02 MB, solutions = 0)
    526    71    infeasible                        53676.3594     9631         
    972   536    35656.4624   298                  53676.3594    17712         
   1586   624    38811.2077   292                  53676.3594    25758         
   2147   830    infeasible                        53676.3594    39415         
   2776  1215    -3315.4966   244                  53676.3594    51685         
   3462  1397     -357.8711   248                  53676.3594    56630         
   4266  1867    -1290.0692   203                  53676.3594    61212         
   5560  2406    -5549.6489   200                  53676.3594    63406         
   7125  3490    10242.6016   196                  53676.3594    64035         
*  8572+ 3227                         2316.5672    53676.3594              --- 
Elapsed time = 25.39 sec. (9029.72 ticks, tree = 58.52 MB, solutions = 1)
* 10931  2594      integral     0    14237.7583    53059.4022    67237  272.67%

Clique cuts applied:  7
Cover cuts applied:  16
Implied bound cuts applied:  276
Flow cuts applied:  1568
Mixed integer rounding cuts applied:  2301
Gomory fractional cuts applied:  119

Root node processing (before b&c):
  Real time             =    9.70 sec. (6539.11 ticks)
Parallel b&c, 32 threads:
  Real time             =   24.70 sec. (6593.58 ticks)
  Sync time (average)   =    1.46 sec.
  Wait time (average)   =    0.00 sec.
                          ------------
Total (root+branch&cut) =   34.41 sec. (13132.68 ticks)

Solution pool: 6 solutions saved.

MIP - Integer optimal, tolerance (0.01/1e-06):  Objective =  1.4237758342e+04
Current MIP best bound =  1.4359584613e+04 (gap = 121.826, 0.86%)
Solution time =   34.44 sec.  Iterations = 87303  Nodes = 11164 (2097)
Deterministic time = 13132.84 ticks  (381.36 ticks/sec)

CPLEX> Incumbent solution written to file 'C:\Users\llavin\Desktop\test919\logs\tmpozjzwbbm.cplex.sol'.
CPLEX> Exporting results... 
